words_hard_train/5988.qaiger
aag 103 16 0 1 87
2
4
8
14
18
28
34
62
70
78
80
84
88
92
96
114
206
6 3 5
10 6 9
12 8 4
16 13 15
20 16 19
22 11 21
24 15 19
26 10 25
30 27 29
32 23 30
36 33 34
38 21 28
40 20 29
42 39 41
44 2 8
46 44 4
48 46 14
50 49 19
52 50 17
54 43 53
56 37 55
58 32 35
60 57 59
64 61 63
66 60 62
68 65 67
72 69 70
74 52 29
76 75 55
82 79 81
86 82 85
90 86 89
94 90 93
98 95 96
100 94 97
102 99 101
104 77 102
106 59 37
108 106 54
110 107 55
112 109 111
116 101 114
118 100 115
120 117 119
122 113 120
124 105 123
126 45 5
128 127 47
130 128 84
132 131 87
134 5 85
136 135 45
138 3 79
140 139 80
142 141 9
144 136 143
146 144 83
148 132 147
150 47 15
152 151 49
154 152 88
156 148 155
158 87 88
160 159 91
162 160 153
164 157 163
166 48 18
168 167 51
170 91 92
172 171 95
174 168 172
176 164 175
178 169 173
180 177 179
182 76 103
184 180 183
186 124 185
188 112 121
190 187 189
192 190 118
194 73 193
196 191 119
198 68 71
200 197 199
202 194 201
204 72 192
206 203 205
i0 2 y2[0]
i1 2 y2[2]
i2 2 y2[1]
i3 2 y2[3]
i4 2 y2[4]
i5 2 y2[5]
i6 2 y2[6]
i7 2 y2[7]
i8 1 x2[7]
i9 1 x2[0]
i10 1 x2[1]
i11 1 x2[2]
i12 1 x2[3]
i13 1 x2[4]
i14 1 x2[5]
i15 1 x2[6]
o0 bv[0]
c
simplified
  >=
    add
      subtract
        133
        2 y2
      reverse
        -107
    1 x2
