words_hard_train/5988.qaiger.qdimacs
p cnf 103 262
a 35 39 40 42 44 46 48 57 0
e 1 2 3 4 5 6 7 8 9 10 11 12 13 14 15 16 17 18 19 20 21 22 23 24 25 26 27 28 29 30 31 32 33 34 36 37 38 41 43 45 47 49 50 51 52 53 54 55 56 58 59 60 61 62 63 64 65 66 67 68 69 70 71 72 73 74 75 76 77 78 79 80 81 82 83 84 85 86 87 88 89 90 91 92 93 94 95 96 97 98 99 100 101 102 103 0
1 2 3 0
-1 -3 0
-2 -3 0
-3 4 5 0
3 -5 0
-4 -5 0
-4 -2 6 0
4 -6 0
2 -6 0
6 7 8 0
-6 -8 0
-7 -8 0
-8 9 10 0
8 -10 0
-9 -10 0
5 10 11 0
-5 -11 0
-10 -11 0
7 9 12 0
-7 -12 0
-9 -12 0
-5 12 13 0
5 -13 0
-12 -13 0
13 14 15 0
-13 -15 0
-14 -15 0
11 -15 16 0
-11 -16 0
15 -16 0
16 -17 18 0
-16 -18 0
17 -18 0
10 -14 19 0
-10 -19 0
14 -19 0
-10 14 20 0
10 -20 0
-14 -20 0
19 20 21 0
-19 -21 0
-20 -21 0
-1 -4 22 0
1 -22 0
4 -22 0
-22 -2 23 0
22 -23 0
2 -23 0
-23 -7 24 0
23 -24 0
7 -24 0
24 9 25 0
-24 -25 0
-9 -25 0
-25 8 26 0
25 -26 0
-8 -26 0
21 26 27 0
-21 -27 0
-26 -27 0
18 27 28 0
-18 -28 0
-27 -28 0
-16 17 29 0
16 -29 0
-17 -29 0
28 29 30 0
-28 -30 0
-29 -30 0
30 31 32 0
-30 -32 0
-31 -32 0
-30 -31 33 0
30 -33 0
31 -33 0
32 33 34 0
-32 -34 0
-33 -34 0
34 -35 36 0
-34 -36 0
35 -36 0
-26 14 37 0
26 -37 0
-14 -37 0
37 27 38 0
-37 -38 0
-27 -38 0
39 40 41 0
-39 -41 0
-40 -41 0
-41 42 43 0
41 -43 0
-42 -43 0
-43 44 45 0
43 -45 0
-44 -45 0
-45 46 47 0
45 -47 0
-46 -47 0
47 -48 49 0
-47 -49 0
48 -49 0
-47 48 50 0
47 -50 0
-48 -50 0
49 50 51 0
-49 -51 0
-50 -51 0
38 -51 52 0
-38 -52 0
51 -52 0
29 18 53 0
-29 -53 0
-18 -53 0
-53 -27 54 0
53 -54 0
27 -54 0
53 27 55 0
-53 -55 0
-27 -55 0
54 55 56 0
-54 -56 0
-55 -56 0
50 -57 58 0
-50 -58 0
57 -58 0
-50 57 59 0
50 -59 0
-57 -59 0
58 59 60 0
-58 -60 0
-59 -60 0
56 -60 61 0
-56 -61 0
60 -61 0
52 61 62 0
-52 -62 0
-61 -62 0
22 2 63 0
-22 -63 0
-2 -63 0
63 23 64 0
-63 -64 0
-23 -64 0
-64 -42 65 0
64 -65 0
42 -65 0
65 43 66 0
-65 -66 0
-43 -66 0
2 42 67 0
-2 -67 0
-42 -67 0
67 22 68 0
-67 -68 0
-22 -68 0
1 39 69 0
-1 -69 0
-39 -69 0
69 -40 70 0
-69 -70 0
40 -70 0
70 4 71 0
-70 -71 0
-4 -71 0
-68 71 72 0
68 -72 0
-71 -72 0
-72 41 73 0
72 -73 0
-41 -73 0
-66 73 74 0
66 -74 0
-73 -74 0
23 7 75 0
-23 -75 0
-7 -75 0
75 24 76 0
-75 -76 0
-24 -76 0
-76 -44 77 0
76 -77 0
44 -77 0
-74 77 78 0
74 -78 0
-77 -78 0
43 -44 79 0
-43 -79 0
44 -79 0
79 45 80 0
-79 -80 0
-45 -80 0
-80 76 81 0
80 -81 0
-76 -81 0
78 81 82 0
-78 -82 0
-81 -82 0
-24 -9 83 0
24 -83 0
9 -83 0
83 25 84 0
-83 -84 0
-25 -84 0
45 -46 85 0
-45 -85 0
46 -85 0
85 47 86 0
-85 -86 0
-47 -86 0
-84 -86 87 0
84 -87 0
86 -87 0
-82 87 88 0
82 -88 0
-87 -88 0
84 86 89 0
-84 -89 0
-86 -89 0
88 89 90 0
-88 -90 0
-89 -90 0
-38 51 91 0
38 -91 0
-51 -91 0
-90 91 92 0
90 -92 0
-91 -92 0
-62 92 93 0
62 -93 0
-92 -93 0
-56 60 94 0
56 -94 0
-60 -94 0
93 94 95 0
-93 -95 0
-94 -95 0
-95 -59 96 0
95 -96 0
59 -96 0
36 96 97 0
-36 -97 0
-96 -97 0
95 59 98 0
-95 -98 0
-59 -98 0
-34 35 99 0
34 -99 0
-35 -99 0
98 99 100 0
-98 -100 0
-99 -100 0
-97 100 101 0
97 -101 0
-100 -101 0
-36 -96 102 0
36 -102 0
96 -102 0
101 102 103 0
-101 -103 0
-102 -103 0
103 0
